\ LP format - for model browsing. Use MPS format to capture full model detail.
Minimize
  C
Subject To
 fistflightcard_1: delta_1,0 + delta_1,1 <= 1
 fistflightcard_2: delta_2,0 + delta_2,1 <= 1
 fistflightcard_3: delta_3,0 + delta_3,1 <= 1
 firstflighdef_1,0: - x_1,0,1,2 - x_1,0,2,1 - x_1,0,3,1 - x_1,0,2,3
   - x_1,0,3,2 - x_1,0,1,3 + delta_1,0 >= 0
 firstflighdef_1,1: x_1,0,1,2 + x_1,0,2,1 + x_1,0,3,1 + x_1,0,2,3
   + x_1,0,3,2 + x_1,0,1,3 - x_1,1,1,2 - x_1,1,2,1 - x_1,1,3,1 - x_1,1,2,3
   - x_1,1,3,2 - x_1,1,1,3 + delta_1,1 >= 0
 firstflighdef_2,0: - x_2,0,1,2 - x_2,0,2,1 - x_2,0,3,1 - x_2,0,2,3
   - x_2,0,3,2 - x_2,0,1,3 + delta_2,0 >= 0
 firstflighdef_2,1: x_2,0,1,2 + x_2,0,2,1 + x_2,0,3,1 + x_2,0,2,3
   + x_2,0,3,2 + x_2,0,1,3 - x_2,1,1,2 - x_2,1,2,1 - x_2,1,3,1 - x_2,1,2,3
   - x_2,1,3,2 - x_2,1,1,3 + delta_2,1 >= 0
 firstflighdef_3,0: - x_3,0,1,2 - x_3,0,2,1 - x_3,0,3,1 - x_3,0,2,3
   - x_3,0,3,2 - x_3,0,1,3 + delta_3,0 >= 0
 firstflighdef_3,1: x_3,0,1,2 + x_3,0,2,1 + x_3,0,3,1 + x_3,0,2,3
   + x_3,0,3,2 + x_3,0,1,3 - x_3,1,1,2 - x_3,1,2,1 - x_3,1,3,1 - x_3,1,2,3
   - x_3,1,3,2 - x_3,1,1,3 + delta_3,1 >= 0
 trajectorystart_1,0: - x_1,0,1,2 - x_1,0,1,3 + delta_1,0 <= 0
 trajectorystart_1,1: - x_1,1,1,2 - x_1,1,1,3 + delta_1,1 <= 0
 trajectorystart_2,0: - x_2,0,1,2 - x_2,0,1,3 + delta_2,0 <= 0
 trajectorystart_2,1: - x_2,1,1,2 - x_2,1,1,3 + delta_2,1 <= 0
 trajectorystart_3,0: - x_3,0,2,1 - x_3,0,2,3 + delta_3,0 <= 0
 trajectorystart_3,1: - x_3,1,2,1 - x_3,1,2,3 + delta_3,1 <= 0
 flightpredecessor_1,0,1-2: x_1,0,1,2 - delta_1,0 <= 0
 flightpredecessor_1,0,2-1: x_1,0,2,1 - delta_1,0 <= 0
 flightpredecessor_1,0,3-1: x_1,0,3,1 - delta_1,0 <= 0
 flightpredecessor_1,0,2-3: x_1,0,2,3 - delta_1,0 <= 0
 flightpredecessor_1,0,3-2: x_1,0,3,2 - delta_1,0 <= 0
 flightpredecessor_1,0,1-3: x_1,0,1,3 - delta_1,0 <= 0
 flightpredecessor_1,1,1-2: - x_1,0,2,1 - x_1,0,3,1 + x_1,1,1,2 - delta_1,1
   <= 0
 flightpredecessor_1,1,2-1: - x_1,0,1,2 - x_1,0,3,2 + x_1,1,2,1 - delta_1,1
   <= 0
 flightpredecessor_1,1,3-1: - x_1,0,2,3 - x_1,0,1,3 + x_1,1,3,1 - delta_1,1
   <= 0
 flightpredecessor_1,1,2-3: - x_1,0,1,2 - x_1,0,3,2 + x_1,1,2,3 - delta_1,1
   <= 0
 flightpredecessor_1,1,3-2: - x_1,0,2,3 - x_1,0,1,3 + x_1,1,3,2 - delta_1,1
   <= 0
 flightpredecessor_1,1,1-3: - x_1,0,2,1 - x_1,0,3,1 + x_1,1,1,3 - delta_1,1
   <= 0
 flightpredecessor_2,0,1-2: x_2,0,1,2 - delta_2,0 <= 0
 flightpredecessor_2,0,2-1: x_2,0,2,1 - delta_2,0 <= 0
 flightpredecessor_2,0,3-1: x_2,0,3,1 - delta_2,0 <= 0
 flightpredecessor_2,0,2-3: x_2,0,2,3 - delta_2,0 <= 0
 flightpredecessor_2,0,3-2: x_2,0,3,2 - delta_2,0 <= 0
 flightpredecessor_2,0,1-3: x_2,0,1,3 - delta_2,0 <= 0
 flightpredecessor_2,1,1-2: - x_2,0,2,1 - x_2,0,3,1 + x_2,1,1,2 - delta_2,1
   <= 0
 flightpredecessor_2,1,2-1: - x_2,0,1,2 - x_2,0,3,2 + x_2,1,2,1 - delta_2,1
   <= 0
 flightpredecessor_2,1,3-1: - x_2,0,2,3 - x_2,0,1,3 + x_2,1,3,1 - delta_2,1
   <= 0
 flightpredecessor_2,1,2-3: - x_2,0,1,2 - x_2,0,3,2 + x_2,1,2,3 - delta_2,1
   <= 0
 flightpredecessor_2,1,3-2: - x_2,0,2,3 - x_2,0,1,3 + x_2,1,3,2 - delta_2,1
   <= 0
 flightpredecessor_2,1,1-3: - x_2,0,2,1 - x_2,0,3,1 + x_2,1,1,3 - delta_2,1
   <= 0
 flightpredecessor_3,0,1-2: x_3,0,1,2 - delta_3,0 <= 0
 flightpredecessor_3,0,2-1: x_3,0,2,1 - delta_3,0 <= 0
 flightpredecessor_3,0,3-1: x_3,0,3,1 - delta_3,0 <= 0
 flightpredecessor_3,0,2-3: x_3,0,2,3 - delta_3,0 <= 0
 flightpredecessor_3,0,3-2: x_3,0,3,2 - delta_3,0 <= 0
 flightpredecessor_3,0,1-3: x_3,0,1,3 - delta_3,0 <= 0
 flightpredecessor_3,1,1-2: - x_3,0,2,1 - x_3,0,3,1 + x_3,1,1,2 - delta_3,1
   <= 0
 flightpredecessor_3,1,2-1: - x_3,0,1,2 - x_3,0,3,2 + x_3,1,2,1 - delta_3,1
   <= 0
 flightpredecessor_3,1,3-1: - x_3,0,2,3 - x_3,0,1,3 + x_3,1,3,1 - delta_3,1
   <= 0
 flightpredecessor_3,1,2-3: - x_3,0,1,2 - x_3,0,3,2 + x_3,1,2,3 - delta_3,1
   <= 0
 flightpredecessor_3,1,3-2: - x_3,0,2,3 - x_3,0,1,3 + x_3,1,3,2 - delta_3,1
   <= 0
 flightpredecessor_3,1,1-3: - x_3,0,2,1 - x_3,0,3,1 + x_3,1,1,3 - delta_3,1
   <= 0
 droneflow2a_1,1,0: >= -1
 droneflow2b_1,1,0: <= 0
 droneflow2a_1,1,1: - x_1,0,1,2 + x_1,0,2,1 + x_1,0,3,1 - x_1,0,1,3 >= -1
 droneflow2b_1,1,1: - x_1,0,1,2 + x_1,0,2,1 + x_1,0,3,1 - x_1,0,1,3 <= 0
 droneflow2a_1,2,0: >= 0
 droneflow2b_1,2,0: <= 1
 droneflow2a_1,2,1: x_1,0,1,2 - x_1,0,2,1 - x_1,0,2,3 + x_1,0,3,2 >= 0
 droneflow2b_1,2,1: x_1,0,1,2 - x_1,0,2,1 - x_1,0,2,3 + x_1,0,3,2 <= 1
 droneflow2a_1,3,0: >= 0
 droneflow2b_1,3,0: <= 1
 droneflow2a_1,3,1: - x_1,0,3,1 + x_1,0,2,3 - x_1,0,3,2 + x_1,0,1,3 >= 0
 droneflow2b_1,3,1: - x_1,0,3,1 + x_1,0,2,3 - x_1,0,3,2 + x_1,0,1,3 <= 1
 droneflow2a_2,1,0: >= -1
 droneflow2b_2,1,0: <= 0
 droneflow2a_2,1,1: - x_2,0,1,2 + x_2,0,2,1 + x_2,0,3,1 - x_2,0,1,3 >= -1
 droneflow2b_2,1,1: - x_2,0,1,2 + x_2,0,2,1 + x_2,0,3,1 - x_2,0,1,3 <= 0
 droneflow2a_2,2,0: >= 0
 droneflow2b_2,2,0: <= 1
 droneflow2a_2,2,1: x_2,0,1,2 - x_2,0,2,1 - x_2,0,2,3 + x_2,0,3,2 >= 0
 droneflow2b_2,2,1: x_2,0,1,2 - x_2,0,2,1 - x_2,0,2,3 + x_2,0,3,2 <= 1
 droneflow2a_2,3,0: >= 0
 droneflow2b_2,3,0: <= 1
 droneflow2a_2,3,1: - x_2,0,3,1 + x_2,0,2,3 - x_2,0,3,2 + x_2,0,1,3 >= 0
 droneflow2b_2,3,1: - x_2,0,3,1 + x_2,0,2,3 - x_2,0,3,2 + x_2,0,1,3 <= 1
 droneflow2a_3,1,0: >= 0
 droneflow2b_3,1,0: <= 1
 droneflow2a_3,1,1: - x_3,0,1,2 + x_3,0,2,1 + x_3,0,3,1 - x_3,0,1,3 >= 0
 droneflow2b_3,1,1: - x_3,0,1,2 + x_3,0,2,1 + x_3,0,3,1 - x_3,0,1,3 <= 1
 droneflow2a_3,2,0: >= -1
 droneflow2b_3,2,0: <= 0
 droneflow2a_3,2,1: x_3,0,1,2 - x_3,0,2,1 - x_3,0,2,3 + x_3,0,3,2 >= -1
 droneflow2b_3,2,1: x_3,0,1,2 - x_3,0,2,1 - x_3,0,2,3 + x_3,0,3,2 <= 0
 droneflow2a_3,3,0: >= 0
 droneflow2b_3,3,0: <= 1
 droneflow2a_3,3,1: - x_3,0,3,1 + x_3,0,2,3 - x_3,0,3,2 + x_3,0,1,3 >= 0
 droneflow2b_3,3,1: - x_3,0,3,1 + x_3,0,2,3 - x_3,0,3,2 + x_3,0,1,3 <= 1
 deliveryflow1_1,0: f_1,0,1,2 + f_1,0,2,1 + f_1,0,3,1 + f_1,0,2,3
   + f_1,0,3,2 + f_1,0,1,3 <= 1
 deliveryflow1_2,0: f_2,0,1,2 + f_2,0,2,1 + f_2,0,3,1 + f_2,0,2,3
   + f_2,0,3,2 + f_2,0,1,3 <= 1
 deliveryflow3_1,1: - f_1,0,1,2 + f_1,0,2,1 + f_1,0,3,1 - f_1,0,1,3 = 0
 deliveryflow3_1,2: f_1,0,1,2 - f_1,0,2,1 - f_1,0,2,3 + f_1,0,3,2 = 1
 deliveryflow3_1,3: - f_1,0,3,1 + f_1,0,2,3 - f_1,0,3,2 + f_1,0,1,3 = -1
 deliveryflow3_2,1: - f_2,0,1,2 + f_2,0,2,1 + f_2,0,3,1 - f_2,0,1,3 = -1
 deliveryflow3_2,2: f_2,0,1,2 - f_2,0,2,1 - f_2,0,2,3 + f_2,0,3,2 = 1
 deliveryflow3_2,3: - f_2,0,3,1 + f_2,0,2,3 - f_2,0,3,2 + f_2,0,1,3 = 0
 ycard2_1,0: y_1,0,1,0 + y_1,0,2,0 <= 1
 ycard2_1,1: y_1,1,1,0 + y_1,1,2,0 <= 1
 ycard2_2,0: y_2,0,1,0 + y_2,0,2,0 <= 1
 ycard2_2,1: y_2,1,1,0 + y_2,1,2,0 <= 1
 ycard2_3,0: y_3,0,1,0 + y_3,0,2,0 <= 1
 ycard2_3,1: y_3,1,1,0 + y_3,1,2,0 <= 1
 ycard1_1,0: y_1,0,1,0 + y_1,1,1,0 + y_2,0,1,0 + y_2,1,1,0 + y_3,0,1,0
   + y_3,1,1,0 <= 1
 ycard1_2,0: y_1,0,2,0 + y_1,1,2,0 + y_2,0,2,0 + y_2,1,2,0 + y_3,0,2,0
   + y_3,1,2,0 <= 1
 linkvars1_1,0: f_1,0,1,2 + f_1,0,2,1 + f_1,0,3,1 + f_1,0,2,3 + f_1,0,3,2
   + f_1,0,1,3 - y_1,0,1,0 - y_1,1,1,0 - y_2,0,1,0 - y_2,1,1,0 - y_3,0,1,0
   - y_3,1,1,0 = 0
 linkvars1_2,0: f_2,0,1,2 + f_2,0,2,1 + f_2,0,3,1 + f_2,0,2,3 + f_2,0,3,2
   + f_2,0,1,3 - y_1,0,2,0 - y_1,1,2,0 - y_2,0,2,0 - y_2,1,2,0 - y_3,0,2,0
   - y_3,1,2,0 = 0
 linkvars2_1,0,1,0,1-2: - x_1,0,1,2 + f_1,0,1,2 + y_1,0,1,0 <= 1
 linkvars2_1,0,1,0,2-1: - x_1,0,2,1 + f_1,0,2,1 + y_1,0,1,0 <= 1
 linkvars2_1,0,1,0,3-1: - x_1,0,3,1 + f_1,0,3,1 + y_1,0,1,0 <= 1
 linkvars2_1,0,1,0,2-3: - x_1,0,2,3 + f_1,0,2,3 + y_1,0,1,0 <= 1
 linkvars2_1,0,1,0,3-2: - x_1,0,3,2 + f_1,0,3,2 + y_1,0,1,0 <= 1
 linkvars2_1,0,1,0,1-3: - x_1,0,1,3 + f_1,0,1,3 + y_1,0,1,0 <= 1
 linkvars2_1,0,2,0,1-2: - x_1,0,1,2 + f_2,0,1,2 + y_1,0,2,0 <= 1
 linkvars2_1,0,2,0,2-1: - x_1,0,2,1 + f_2,0,2,1 + y_1,0,2,0 <= 1
 linkvars2_1,0,2,0,3-1: - x_1,0,3,1 + f_2,0,3,1 + y_1,0,2,0 <= 1
 linkvars2_1,0,2,0,2-3: - x_1,0,2,3 + f_2,0,2,3 + y_1,0,2,0 <= 1
 linkvars2_1,0,2,0,3-2: - x_1,0,3,2 + f_2,0,3,2 + y_1,0,2,0 <= 1
 linkvars2_1,0,2,0,1-3: - x_1,0,1,3 + f_2,0,1,3 + y_1,0,2,0 <= 1
 linkvars2_1,1,1,0,1-2: - x_1,1,1,2 + f_1,0,1,2 + y_1,1,1,0 <= 1
 linkvars2_1,1,1,0,2-1: - x_1,1,2,1 + f_1,0,2,1 + y_1,1,1,0 <= 1
 linkvars2_1,1,1,0,3-1: - x_1,1,3,1 + f_1,0,3,1 + y_1,1,1,0 <= 1
 linkvars2_1,1,1,0,2-3: - x_1,1,2,3 + f_1,0,2,3 + y_1,1,1,0 <= 1
 linkvars2_1,1,1,0,3-2: - x_1,1,3,2 + f_1,0,3,2 + y_1,1,1,0 <= 1
 linkvars2_1,1,1,0,1-3: - x_1,1,1,3 + f_1,0,1,3 + y_1,1,1,0 <= 1
 linkvars2_1,1,2,0,1-2: - x_1,1,1,2 + f_2,0,1,2 + y_1,1,2,0 <= 1
 linkvars2_1,1,2,0,2-1: - x_1,1,2,1 + f_2,0,2,1 + y_1,1,2,0 <= 1
 linkvars2_1,1,2,0,3-1: - x_1,1,3,1 + f_2,0,3,1 + y_1,1,2,0 <= 1
 linkvars2_1,1,2,0,2-3: - x_1,1,2,3 + f_2,0,2,3 + y_1,1,2,0 <= 1
 linkvars2_1,1,2,0,3-2: - x_1,1,3,2 + f_2,0,3,2 + y_1,1,2,0 <= 1
 linkvars2_1,1,2,0,1-3: - x_1,1,1,3 + f_2,0,1,3 + y_1,1,2,0 <= 1
 linkvars2_2,0,1,0,1-2: - x_2,0,1,2 + f_1,0,1,2 + y_2,0,1,0 <= 1
 linkvars2_2,0,1,0,2-1: - x_2,0,2,1 + f_1,0,2,1 + y_2,0,1,0 <= 1
 linkvars2_2,0,1,0,3-1: - x_2,0,3,1 + f_1,0,3,1 + y_2,0,1,0 <= 1
 linkvars2_2,0,1,0,2-3: - x_2,0,2,3 + f_1,0,2,3 + y_2,0,1,0 <= 1
 linkvars2_2,0,1,0,3-2: - x_2,0,3,2 + f_1,0,3,2 + y_2,0,1,0 <= 1
 linkvars2_2,0,1,0,1-3: - x_2,0,1,3 + f_1,0,1,3 + y_2,0,1,0 <= 1
 linkvars2_2,0,2,0,1-2: - x_2,0,1,2 + f_2,0,1,2 + y_2,0,2,0 <= 1
 linkvars2_2,0,2,0,2-1: - x_2,0,2,1 + f_2,0,2,1 + y_2,0,2,0 <= 1
 linkvars2_2,0,2,0,3-1: - x_2,0,3,1 + f_2,0,3,1 + y_2,0,2,0 <= 1
 linkvars2_2,0,2,0,2-3: - x_2,0,2,3 + f_2,0,2,3 + y_2,0,2,0 <= 1
 linkvars2_2,0,2,0,3-2: - x_2,0,3,2 + f_2,0,3,2 + y_2,0,2,0 <= 1
 linkvars2_2,0,2,0,1-3: - x_2,0,1,3 + f_2,0,1,3 + y_2,0,2,0 <= 1
 linkvars2_2,1,1,0,1-2: - x_2,1,1,2 + f_1,0,1,2 + y_2,1,1,0 <= 1
 linkvars2_2,1,1,0,2-1: - x_2,1,2,1 + f_1,0,2,1 + y_2,1,1,0 <= 1
 linkvars2_2,1,1,0,3-1: - x_2,1,3,1 + f_1,0,3,1 + y_2,1,1,0 <= 1
 linkvars2_2,1,1,0,2-3: - x_2,1,2,3 + f_1,0,2,3 + y_2,1,1,0 <= 1
 linkvars2_2,1,1,0,3-2: - x_2,1,3,2 + f_1,0,3,2 + y_2,1,1,0 <= 1
 linkvars2_2,1,1,0,1-3: - x_2,1,1,3 + f_1,0,1,3 + y_2,1,1,0 <= 1
 linkvars2_2,1,2,0,1-2: - x_2,1,1,2 + f_2,0,1,2 + y_2,1,2,0 <= 1
 linkvars2_2,1,2,0,2-1: - x_2,1,2,1 + f_2,0,2,1 + y_2,1,2,0 <= 1
 linkvars2_2,1,2,0,3-1: - x_2,1,3,1 + f_2,0,3,1 + y_2,1,2,0 <= 1
 linkvars2_2,1,2,0,2-3: - x_2,1,2,3 + f_2,0,2,3 + y_2,1,2,0 <= 1
 linkvars2_2,1,2,0,3-2: - x_2,1,3,2 + f_2,0,3,2 + y_2,1,2,0 <= 1
 linkvars2_2,1,2,0,1-3: - x_2,1,1,3 + f_2,0,1,3 + y_2,1,2,0 <= 1
 linkvars2_3,0,1,0,1-2: - x_3,0,1,2 + f_1,0,1,2 + y_3,0,1,0 <= 1
 linkvars2_3,0,1,0,2-1: - x_3,0,2,1 + f_1,0,2,1 + y_3,0,1,0 <= 1
 linkvars2_3,0,1,0,3-1: - x_3,0,3,1 + f_1,0,3,1 + y_3,0,1,0 <= 1
 linkvars2_3,0,1,0,2-3: - x_3,0,2,3 + f_1,0,2,3 + y_3,0,1,0 <= 1
 linkvars2_3,0,1,0,3-2: - x_3,0,3,2 + f_1,0,3,2 + y_3,0,1,0 <= 1
 linkvars2_3,0,1,0,1-3: - x_3,0,1,3 + f_1,0,1,3 + y_3,0,1,0 <= 1
 linkvars2_3,0,2,0,1-2: - x_3,0,1,2 + f_2,0,1,2 + y_3,0,2,0 <= 1
 linkvars2_3,0,2,0,2-1: - x_3,0,2,1 + f_2,0,2,1 + y_3,0,2,0 <= 1
 linkvars2_3,0,2,0,3-1: - x_3,0,3,1 + f_2,0,3,1 + y_3,0,2,0 <= 1
 linkvars2_3,0,2,0,2-3: - x_3,0,2,3 + f_2,0,2,3 + y_3,0,2,0 <= 1
 linkvars2_3,0,2,0,3-2: - x_3,0,3,2 + f_2,0,3,2 + y_3,0,2,0 <= 1
 linkvars2_3,0,2,0,1-3: - x_3,0,1,3 + f_2,0,1,3 + y_3,0,2,0 <= 1
 linkvars2_3,1,1,0,1-2: - x_3,1,1,2 + f_1,0,1,2 + y_3,1,1,0 <= 1
 linkvars2_3,1,1,0,2-1: - x_3,1,2,1 + f_1,0,2,1 + y_3,1,1,0 <= 1
 linkvars2_3,1,1,0,3-1: - x_3,1,3,1 + f_1,0,3,1 + y_3,1,1,0 <= 1
 linkvars2_3,1,1,0,2-3: - x_3,1,2,3 + f_1,0,2,3 + y_3,1,1,0 <= 1
 linkvars2_3,1,1,0,3-2: - x_3,1,3,2 + f_1,0,3,2 + y_3,1,1,0 <= 1
 linkvars2_3,1,1,0,1-3: - x_3,1,1,3 + f_1,0,1,3 + y_3,1,1,0 <= 1
 linkvars2_3,1,2,0,1-2: - x_3,1,1,2 + f_2,0,1,2 + y_3,1,2,0 <= 1
 linkvars2_3,1,2,0,2-1: - x_3,1,2,1 + f_2,0,2,1 + y_3,1,2,0 <= 1
 linkvars2_3,1,2,0,3-1: - x_3,1,3,1 + f_2,0,3,1 + y_3,1,2,0 <= 1
 linkvars2_3,1,2,0,2-3: - x_3,1,2,3 + f_2,0,2,3 + y_3,1,2,0 <= 1
 linkvars2_3,1,2,0,3-2: - x_3,1,3,2 + f_2,0,3,2 + y_3,1,2,0 <= 1
 linkvars2_3,1,2,0,1-3: - x_3,1,1,3 + f_2,0,1,3 + y_3,1,2,0 <= 1
 swapnotmove_1,0,: x_1,0,1,2 + x_1,0,2,1 + x_1,0,3,1 + x_1,0,2,3
   + x_1,0,3,2 + x_1,0,1,3 + gamma_1,0 <= 1
 swapnotmove_1,1,: x_1,1,1,2 + x_1,1,2,1 + x_1,1,3,1 + x_1,1,2,3
   + x_1,1,3,2 + x_1,1,1,3 + gamma_1,1 <= 1
 swapnotmove_2,0,: x_2,0,1,2 + x_2,0,2,1 + x_2,0,3,1 + x_2,0,2,3
   + x_2,0,3,2 + x_2,0,1,3 + gamma_2,0 <= 1
 swapnotmove_2,1,: x_2,1,1,2 + x_2,1,2,1 + x_2,1,3,1 + x_2,1,2,3
   + x_2,1,3,2 + x_2,1,1,3 + gamma_2,1 <= 1
 swapnotmove_3,0,: x_3,0,1,2 + x_3,0,2,1 + x_3,0,3,1 + x_3,0,2,3
   + x_3,0,3,2 + x_3,0,1,3 + gamma_3,0 <= 1
 swapnotmove_3,1,: x_3,1,1,2 + x_3,1,2,1 + x_3,1,3,1 + x_3,1,2,3
   + x_3,1,3,2 + x_3,1,1,3 + gamma_3,1 <= 1
 batterysocswap_1,0: - gamma_1,0 + B_1,0 >= 0
 batterysocswap_1,1: - gamma_1,1 + B_1,1 >= 0
 batterysocswap_2,0: - gamma_2,0 + B_2,0 >= 0
 batterysocswap_2,1: - gamma_2,1 + B_2,1 >= 0
 batterysocswap_3,0: - gamma_3,0 + B_3,0 >= 0
 batterysocswap_3,1: - gamma_3,1 + B_3,1 >= 0
 batteryconsumption1_1,0: 0.3386233295572056 x_1,0,1,2
   + 0.3386233295572056 x_1,0,2,1 + 0.3033509510669791 x_1,0,3,1
   + 0.445200386812882 x_1,0,2,3 + 0.445200386812882 x_1,0,3,2
   + 0.3033509510669791 x_1,0,1,3 - 100 gamma_1,0 + B_1,0 <= 1
 batteryconsumption1_1,1: 0.3386233295572056 x_1,1,1,2
   + 0.3386233295572056 x_1,1,2,1 + 0.3033509510669791 x_1,1,3,1
   + 0.445200386812882 x_1,1,2,3 + 0.445200386812882 x_1,1,3,2
   + 0.3033509510669791 x_1,1,1,3 - 100 gamma_1,1 - B_1,0 + B_1,1 <= 0
 batteryconsumption1_2,0: 0.3386233295572056 x_2,0,1,2
   + 0.3386233295572056 x_2,0,2,1 + 0.3033509510669791 x_2,0,3,1
   + 0.445200386812882 x_2,0,2,3 + 0.445200386812882 x_2,0,3,2
   + 0.3033509510669791 x_2,0,1,3 - 100 gamma_2,0 + B_2,0 <= 1
 batteryconsumption1_2,1: 0.3386233295572056 x_2,1,1,2
   + 0.3386233295572056 x_2,1,2,1 + 0.3033509510669791 x_2,1,3,1
   + 0.445200386812882 x_2,1,2,3 + 0.445200386812882 x_2,1,3,2
   + 0.3033509510669791 x_2,1,1,3 - 100 gamma_2,1 - B_2,0 + B_2,1 <= 0
 batteryconsumption1_3,0: 0.3386233295572056 x_3,0,1,2
   + 0.3386233295572056 x_3,0,2,1 + 0.3033509510669791 x_3,0,3,1
   + 0.445200386812882 x_3,0,2,3 + 0.445200386812882 x_3,0,3,2
   + 0.3033509510669791 x_3,0,1,3 - 100 gamma_3,0 + B_3,0 <= 1
 batteryconsumption1_3,1: 0.3386233295572056 x_3,1,1,2
   + 0.3386233295572056 x_3,1,2,1 + 0.3033509510669791 x_3,1,3,1
   + 0.445200386812882 x_3,1,2,3 + 0.445200386812882 x_3,1,3,2
   + 0.3033509510669791 x_3,1,1,3 - 100 gamma_3,1 - B_3,0 + B_3,1 <= 0
 batteryconsumption2_1,0,1,2: 100 x_1,0,1,2 + 0.3751028545785009 y_1,0,1,0
   + 0.4180031377258509 y_1,0,2,0 - 100 gamma_1,0 + B_1,0 <= 101
 batteryconsumption2_1,0,2,1: 100 x_1,0,2,1 + 0.3751028545785009 y_1,0,1,0
   + 0.4180031377258509 y_1,0,2,0 - 100 gamma_1,0 + B_1,0 <= 101
 batteryconsumption2_1,0,3,1: 100 x_1,0,3,1 + 0.3360306209058881 y_1,0,1,0
   + 0.3744622366802904 y_1,0,2,0 - 100 gamma_1,0 + B_1,0 <= 101
 batteryconsumption2_1,0,2,3: 100 x_1,0,2,3 + 0.4931613429332641 y_1,0,1,0
   + 0.5495639029002845 y_1,0,2,0 - 100 gamma_1,0 + B_1,0 <= 101
 batteryconsumption2_1,0,3,2: 100 x_1,0,3,2 + 0.4931613429332641 y_1,0,1,0
   + 0.5495639029002845 y_1,0,2,0 - 100 gamma_1,0 + B_1,0 <= 101
 batteryconsumption2_1,0,1,3: 100 x_1,0,1,3 + 0.3360306209058881 y_1,0,1,0
   + 0.3744622366802904 y_1,0,2,0 - 100 gamma_1,0 + B_1,0 <= 101
 batteryconsumption2_1,1,1,2: 100 x_1,1,1,2 + 0.3751028545785009 y_1,1,1,0
   + 0.4180031377258509 y_1,1,2,0 - 100 gamma_1,1 - B_1,0 + B_1,1 <= 100
 batteryconsumption2_1,1,2,1: 100 x_1,1,2,1 + 0.3751028545785009 y_1,1,1,0
   + 0.4180031377258509 y_1,1,2,0 - 100 gamma_1,1 - B_1,0 + B_1,1 <= 100
 batteryconsumption2_1,1,3,1: 100 x_1,1,3,1 + 0.3360306209058881 y_1,1,1,0
   + 0.3744622366802904 y_1,1,2,0 - 100 gamma_1,1 - B_1,0 + B_1,1 <= 100
 batteryconsumption2_1,1,2,3: 100 x_1,1,2,3 + 0.4931613429332641 y_1,1,1,0
   + 0.5495639029002845 y_1,1,2,0 - 100 gamma_1,1 - B_1,0 + B_1,1 <= 100
 batteryconsumption2_1,1,3,2: 100 x_1,1,3,2 + 0.4931613429332641 y_1,1,1,0
   + 0.5495639029002845 y_1,1,2,0 - 100 gamma_1,1 - B_1,0 + B_1,1 <= 100
 batteryconsumption2_1,1,1,3: 100 x_1,1,1,3 + 0.3360306209058881 y_1,1,1,0
   + 0.3744622366802904 y_1,1,2,0 - 100 gamma_1,1 - B_1,0 + B_1,1 <= 100
 batteryconsumption2_2,0,1,2: 100 x_2,0,1,2 + 0.3751028545785009 y_2,0,1,0
   + 0.4180031377258509 y_2,0,2,0 - 100 gamma_2,0 + B_2,0 <= 101
 batteryconsumption2_2,0,2,1: 100 x_2,0,2,1 + 0.3751028545785009 y_2,0,1,0
   + 0.4180031377258509 y_2,0,2,0 - 100 gamma_2,0 + B_2,0 <= 101
 batteryconsumption2_2,0,3,1: 100 x_2,0,3,1 + 0.3360306209058881 y_2,0,1,0
   + 0.3744622366802904 y_2,0,2,0 - 100 gamma_2,0 + B_2,0 <= 101
 batteryconsumption2_2,0,2,3: 100 x_2,0,2,3 + 0.4931613429332641 y_2,0,1,0
   + 0.5495639029002845 y_2,0,2,0 - 100 gamma_2,0 + B_2,0 <= 101
 batteryconsumption2_2,0,3,2: 100 x_2,0,3,2 + 0.4931613429332641 y_2,0,1,0
   + 0.5495639029002845 y_2,0,2,0 - 100 gamma_2,0 + B_2,0 <= 101
 batteryconsumption2_2,0,1,3: 100 x_2,0,1,3 + 0.3360306209058881 y_2,0,1,0
   + 0.3744622366802904 y_2,0,2,0 - 100 gamma_2,0 + B_2,0 <= 101
 batteryconsumption2_2,1,1,2: 100 x_2,1,1,2 + 0.3751028545785009 y_2,1,1,0
   + 0.4180031377258509 y_2,1,2,0 - 100 gamma_2,1 - B_2,0 + B_2,1 <= 100
 batteryconsumption2_2,1,2,1: 100 x_2,1,2,1 + 0.3751028545785009 y_2,1,1,0
   + 0.4180031377258509 y_2,1,2,0 - 100 gamma_2,1 - B_2,0 + B_2,1 <= 100
 batteryconsumption2_2,1,3,1: 100 x_2,1,3,1 + 0.3360306209058881 y_2,1,1,0
   + 0.3744622366802904 y_2,1,2,0 - 100 gamma_2,1 - B_2,0 + B_2,1 <= 100
 batteryconsumption2_2,1,2,3: 100 x_2,1,2,3 + 0.4931613429332641 y_2,1,1,0
   + 0.5495639029002845 y_2,1,2,0 - 100 gamma_2,1 - B_2,0 + B_2,1 <= 100
 batteryconsumption2_2,1,3,2: 100 x_2,1,3,2 + 0.4931613429332641 y_2,1,1,0
   + 0.5495639029002845 y_2,1,2,0 - 100 gamma_2,1 - B_2,0 + B_2,1 <= 100
 batteryconsumption2_2,1,1,3: 100 x_2,1,1,3 + 0.3360306209058881 y_2,1,1,0
   + 0.3744622366802904 y_2,1,2,0 - 100 gamma_2,1 - B_2,0 + B_2,1 <= 100
 batteryconsumption2_3,0,1,2: 100 x_3,0,1,2 + 0.3751028545785009 y_3,0,1,0
   + 0.4180031377258509 y_3,0,2,0 - 100 gamma_3,0 + B_3,0 <= 101
 batteryconsumption2_3,0,2,1: 100 x_3,0,2,1 + 0.3751028545785009 y_3,0,1,0
   + 0.4180031377258509 y_3,0,2,0 - 100 gamma_3,0 + B_3,0 <= 101
 batteryconsumption2_3,0,3,1: 100 x_3,0,3,1 + 0.3360306209058881 y_3,0,1,0
   + 0.3744622366802904 y_3,0,2,0 - 100 gamma_3,0 + B_3,0 <= 101
 batteryconsumption2_3,0,2,3: 100 x_3,0,2,3 + 0.4931613429332641 y_3,0,1,0
   + 0.5495639029002845 y_3,0,2,0 - 100 gamma_3,0 + B_3,0 <= 101
 batteryconsumption2_3,0,3,2: 100 x_3,0,3,2 + 0.4931613429332641 y_3,0,1,0
   + 0.5495639029002845 y_3,0,2,0 - 100 gamma_3,0 + B_3,0 <= 101
 batteryconsumption2_3,0,1,3: 100 x_3,0,1,3 + 0.3360306209058881 y_3,0,1,0
   + 0.3744622366802904 y_3,0,2,0 - 100 gamma_3,0 + B_3,0 <= 101
 batteryconsumption2_3,1,1,2: 100 x_3,1,1,2 + 0.3751028545785009 y_3,1,1,0
   + 0.4180031377258509 y_3,1,2,0 - 100 gamma_3,1 - B_3,0 + B_3,1 <= 100
 batteryconsumption2_3,1,2,1: 100 x_3,1,2,1 + 0.3751028545785009 y_3,1,1,0
   + 0.4180031377258509 y_3,1,2,0 - 100 gamma_3,1 - B_3,0 + B_3,1 <= 100
 batteryconsumption2_3,1,3,1: 100 x_3,1,3,1 + 0.3360306209058881 y_3,1,1,0
   + 0.3744622366802904 y_3,1,2,0 - 100 gamma_3,1 - B_3,0 + B_3,1 <= 100
 batteryconsumption2_3,1,2,3: 100 x_3,1,2,3 + 0.4931613429332641 y_3,1,1,0
   + 0.5495639029002845 y_3,1,2,0 - 100 gamma_3,1 - B_3,0 + B_3,1 <= 100
 batteryconsumption2_3,1,3,2: 100 x_3,1,3,2 + 0.4931613429332641 y_3,1,1,0
   + 0.5495639029002845 y_3,1,2,0 - 100 gamma_3,1 - B_3,0 + B_3,1 <= 100
 batteryconsumption2_3,1,1,3: 100 x_3,1,1,3 + 0.3360306209058881 y_3,1,1,0
   + 0.3744622366802904 y_3,1,2,0 - 100 gamma_3,1 - B_3,0 + B_3,1 <= 100
 time1_1,0: - C_1,0 + C >= 0
 time1_1,1: - C_1,1 + C >= 0
 time1_2,0: - C_2,0 + C >= 0
 time1_2,1: - C_2,1 + C >= 0
 time1_3,0: - C_3,0 + C >= 0
 time1_3,1: - C_3,1 + C >= 0
 time3_1,0: - 403.1230113776258 x_1,0,1,2 - 403.1230113776258 x_1,0,2,1
   - 361.1320846035466 x_1,0,3,1 - 530.0004604915262 x_1,0,2,3
   - 530.0004604915262 x_1,0,3,2 - 361.1320846035466 x_1,0,1,3 + C_1,0
   >= 0
 time3_1,1: - 403.1230113776258 x_1,1,1,2 - 403.1230113776258 x_1,1,2,1
   - 361.1320846035466 x_1,1,3,1 - 530.0004604915262 x_1,1,2,3
   - 530.0004604915262 x_1,1,3,2 - 361.1320846035466 x_1,1,1,3 - C_1,0
   + C_1,1 >= 0
 time3_2,0: - 403.1230113776258 x_2,0,1,2 - 403.1230113776258 x_2,0,2,1
   - 361.1320846035466 x_2,0,3,1 - 530.0004604915262 x_2,0,2,3
   - 530.0004604915262 x_2,0,3,2 - 361.1320846035466 x_2,0,1,3 + C_2,0
   >= 0
 time3_2,1: - 403.1230113776258 x_2,1,1,2 - 403.1230113776258 x_2,1,2,1
   - 361.1320846035466 x_2,1,3,1 - 530.0004604915262 x_2,1,2,3
   - 530.0004604915262 x_2,1,3,2 - 361.1320846035466 x_2,1,1,3 - C_2,0
   + C_2,1 >= 0
 time3_3,0: - 403.1230113776258 x_3,0,1,2 - 403.1230113776258 x_3,0,2,1
   - 361.1320846035466 x_3,0,3,1 - 530.0004604915262 x_3,0,2,3
   - 530.0004604915262 x_3,0,3,2 - 361.1320846035466 x_3,0,1,3 + C_3,0
   >= 0
 time3_3,1: - 403.1230113776258 x_3,1,1,2 - 403.1230113776258 x_3,1,2,1
   - 361.1320846035466 x_3,1,3,1 - 530.0004604915262 x_3,1,2,3
   - 530.0004604915262 x_3,1,3,2 - 361.1320846035466 x_3,1,1,3 - C_3,0
   + C_3,1 >= 0
 time4_1,0: - 60 gamma_1,0 + C_1,0 >= 0
 time4_1,1: - 60 gamma_1,1 - C_1,0 + C_1,1 >= 0
 time4_2,0: - 60 gamma_2,0 + C_2,0 >= 0
 time4_2,1: - 60 gamma_2,1 - C_2,0 + C_2,1 >= 0
 time4_3,0: - 60 gamma_3,0 + C_3,0 >= 0
 time4_3,1: - 60 gamma_3,1 - C_3,0 + C_3,1 >= 0
 time6a_1,0,1,0: - 5000 y_1,0,1,0 - C_1,0 + CD_1,0 >= -5000
 time6b_1,0,1,0: - 5000 y_1,0,1,0 + C_1,0 - CD_1,0 >= -5000
 time6a_1,1,1,0: - 5000 y_1,1,1,0 - C_1,1 + CD_1,0 >= -5000
 time6b_1,1,1,0: - 5000 y_1,1,1,0 + C_1,1 - CD_1,0 >= -5000
 time6a_2,0,1,0: - 5000 y_2,0,1,0 - C_2,0 + CD_1,0 >= -5000
 time6b_2,0,1,0: - 5000 y_2,0,1,0 + C_2,0 - CD_1,0 >= -5000
 time6a_2,1,1,0: - 5000 y_2,1,1,0 - C_2,1 + CD_1,0 >= -5000
 time6b_2,1,1,0: - 5000 y_2,1,1,0 + C_2,1 - CD_1,0 >= -5000
 time6a_3,0,1,0: - 5000 y_3,0,1,0 - C_3,0 + CD_1,0 >= -5000
 time6b_3,0,1,0: - 5000 y_3,0,1,0 + C_3,0 - CD_1,0 >= -5000
 time6a_3,1,1,0: - 5000 y_3,1,1,0 - C_3,1 + CD_1,0 >= -5000
 time6b_3,1,1,0: - 5000 y_3,1,1,0 + C_3,1 - CD_1,0 >= -5000
 time6a_1,0,2,0: - 5000 y_1,0,2,0 - C_1,0 + CD_2,0 >= -5000
 time6b_1,0,2,0: - 5000 y_1,0,2,0 + C_1,0 - CD_2,0 >= -5000
 time6a_1,1,2,0: - 5000 y_1,1,2,0 - C_1,1 + CD_2,0 >= -5000
 time6b_1,1,2,0: - 5000 y_1,1,2,0 + C_1,1 - CD_2,0 >= -5000
 time6a_2,0,2,0: - 5000 y_2,0,2,0 - C_2,0 + CD_2,0 >= -5000
 time6b_2,0,2,0: - 5000 y_2,0,2,0 + C_2,0 - CD_2,0 >= -5000
 time6a_2,1,2,0: - 5000 y_2,1,2,0 - C_2,1 + CD_2,0 >= -5000
 time6b_2,1,2,0: - 5000 y_2,1,2,0 + C_2,1 - CD_2,0 >= -5000
 time6a_3,0,2,0: - 5000 y_3,0,2,0 - C_3,0 + CD_2,0 >= -5000
 time6b_3,0,2,0: - 5000 y_3,0,2,0 + C_3,0 - CD_2,0 >= -5000
 time6a_3,1,2,0: - 5000 y_3,1,2,0 - C_3,1 + CD_2,0 >= -5000
 time6b_3,1,2,0: - 5000 y_3,1,2,0 + C_3,1 - CD_2,0 >= -5000
Bounds
 B_1,0 <= 1
 B_1,1 <= 1
 B_2,0 <= 1
 B_2,1 <= 1
 B_3,0 <= 1
 B_3,1 <= 1
Binaries
 x_1,0,1,2 x_1,0,2,1 x_1,0,3,1 x_1,0,2,3 x_1,0,3,2 x_1,0,1,3 x_1,1,1,2
 x_1,1,2,1 x_1,1,3,1 x_1,1,2,3 x_1,1,3,2 x_1,1,1,3 x_2,0,1,2 x_2,0,2,1
 x_2,0,3,1 x_2,0,2,3 x_2,0,3,2 x_2,0,1,3 x_2,1,1,2 x_2,1,2,1 x_2,1,3,1
 x_2,1,2,3 x_2,1,3,2 x_2,1,1,3 x_3,0,1,2 x_3,0,2,1 x_3,0,3,1 x_3,0,2,3
 x_3,0,3,2 x_3,0,1,3 x_3,1,1,2 x_3,1,2,1 x_3,1,3,1 x_3,1,2,3 x_3,1,3,2
 x_3,1,1,3 delta_1,0 delta_1,1 delta_2,0 delta_2,1 delta_3,0 delta_3,1
 f_1,0,1,2 f_1,0,2,1 f_1,0,3,1 f_1,0,2,3 f_1,0,3,2 f_1,0,1,3 f_2,0,1,2
 f_2,0,2,1 f_2,0,3,1 f_2,0,2,3 f_2,0,3,2 f_2,0,1,3 y_1,0,1,0 y_1,1,1,0
 y_2,0,1,0 y_2,1,1,0 y_3,0,1,0 y_3,1,1,0 y_1,0,2,0 y_1,1,2,0 y_2,0,2,0
 y_2,1,2,0 y_3,0,2,0 y_3,1,2,0 gamma_1,0 gamma_1,1 gamma_2,0 gamma_2,1
 gamma_3,0 gamma_3,1
End
